p edge 60 467
e 1 11
e 1 12
e 1 15
e 1 17
e 1 20
e 1 21
e 1 27
e 1 28
e 1 29
e 1 33
e 1 38
e 1 41
e 1 42
e 1 43
e 1 46
e 1 50
e 1 52
e 1 54
e 2 3
e 2 4
e 2 9
e 2 10
e 2 12
e 2 14
e 2 16
e 2 20
e 2 23
e 2 24
e 2 28
e 2 30
e 2 35
e 2 37
e 2 43
e 2 47
e 2 58
e 2 60
e 3 4
e 3 6
e 3 10
e 3 13
e 3 24
e 3 27
e 3 32
e 3 36
e 3 37
e 3 42
e 3 44
e 3 47
e 3 48
e 4 6
e 4 18
e 4 26
e 4 30
e 4 34
e 4 35
e 4 36
e 4 38
e 4 40
e 4 43
e 4 44
e 4 45
e 4 46
e 4 55
e 4 57
e 4 60
e 5 10
e 5 15
e 5 22
e 5 30
e 5 32
e 5 33
e 5 36
e 5 40
e 5 41
e 5 42
e 5 46
e 5 47
e 5 52
e 5 53
e 5 55
e 5 57
e 5 59
e 5 60
e 6 19
e 6 21
e 6 29
e 6 30
e 6 32
e 6 34
e 6 37
e 6 48
e 6 55
e 6 56
e 6 59
e 7 10
e 7 18
e 7 28
e 7 33
e 7 35
e 7 39
e 7 43
e 7 48
e 7 52
e 7 58
e 8 12
e 8 13
e 8 14
e 8 15
e 8 19
e 8 20
e 8 28
e 8 33
e 8 34
e 8 35
e 8 36
e 8 43
e 8 46
e 8 50
e 8 54
e 8 57
e 8 58
e 8 59
e 9 11
e 9 13
e 9 15
e 9 16
e 9 18
e 9 20
e 9 28
e 9 29
e 9 34
e 9 42
e 9 47
e 9 51
e 9 54
e 9 59
e 9 60
e 10 13
e 10 19
e 10 22
e 10 23
e 10 24
e 10 29
e 10 30
e 10 35
e 10 37
e 10 38
e 10 44
e 10 45
e 10 53
e 10 54
e 10 55
e 10 60
e 11 17
e 11 20
e 11 25
e 11 31
e 11 37
e 11 44
e 11 49
e 11 51
e 11 55
e 11 60
e 12 20
e 12 25
e 12 27
e 12 29
e 12 34
e 12 42
e 12 43
e 12 44
e 12 45
e 12 51
e 12 53
e 12 58
e 13 17
e 13 30
e 13 31
e 13 32
e 13 37
e 13 48
e 13 51
e 13 58
e 13 60
e 14 15
e 14 17
e 14 18
e 14 28
e 14 31
e 14 33
e 14 35
e 14 36
e 14 43
e 14 48
e 14 54
e 14 56
e 14 57
e 14 60
e 15 20
e 15 28
e 15 29
e 15 30
e 15 32
e 15 33
e 15 37
e 15 38
e 15 39
e 15 42
e 15 48
e 15 57
e 15 59
e 16 21
e 16 26
e 16 29
e 16 30
e 16 32
e 16 38
e 16 39
e 16 50
e 16 51
e 16 54
e 16 56
e 16 57
e 16 58
e 17 22
e 17 29
e 17 31
e 17 39
e 17 41
e 17 42
e 17 46
e 17 47
e 17 49
e 17 50
e 17 57
e 18 20
e 18 24
e 18 25
e 18 26
e 18 28
e 18 30
e 18 37
e 18 38
e 18 40
e 18 41
e 18 46
e 18 47
e 18 48
e 18 50
e 18 58
e 18 59
e 19 23
e 19 29
e 19 30
e 19 31
e 19 34
e 19 38
e 19 43
e 19 44
e 19 46
e 19 51
e 19 54
e 19 58
e 19 60
e 20 21
e 20 28
e 20 29
e 20 31
e 20 41
e 20 51
e 20 52
e 20 54
e 20 55
e 21 22
e 21 25
e 21 30
e 21 34
e 21 39
e 21 41
e 21 47
e 21 60
e 22 30
e 22 47
e 22 49
e 22 50
e 22 54
e 22 59
e 23 27
e 23 32
e 23 40
e 23 41
e 23 46
e 23 47
e 23 55
e 23 57
e 24 38
e 24 49
e 24 54
e 24 58
e 24 60
e 25 26
e 25 27
e 25 28
e 25 30
e 25 32
e 25 35
e 25 42
e 25 44
e 25 46
e 25 50
e 25 54
e 25 55
e 25 58
e 25 59
e 26 27
e 26 28
e 26 30
e 26 33
e 26 34
e 26 36
e 26 37
e 26 38
e 26 45
e 26 46
e 26 50
e 26 52
e 26 56
e 26 58
e 27 28
e 27 31
e 27 32
e 27 34
e 27 38
e 27 39
e 27 40
e 27 44
e 27 45
e 27 48
e 27 53
e 28 36
e 28 38
e 28 40
e 28 41
e 28 42
e 28 43
e 28 49
e 28 52
e 28 57
e 29 30
e 29 31
e 29 32
e 29 35
e 29 47
e 29 51
e 29 52
e 30 35
e 30 38
e 30 41
e 30 44
e 30 46
e 30 54
e 31 36
e 31 47
e 31 53
e 31 55
e 31 57
e 31 58
e 32 34
e 32 37
e 32 38
e 32 40
e 32 51
e 32 53
e 32 56
e 32 58
e 33 35
e 33 36
e 33 40
e 33 55
e 33 59
e 34 40
e 34 41
e 34 45
e 34 51
e 34 53
e 34 60
e 35 36
e 35 37
e 35 44
e 35 45
e 35 54
e 36 41
e 36 50
e 36 51
e 36 52
e 36 54
e 36 58
e 36 59
e 37 38
e 37 47
e 37 49
e 37 51
e 37 52
e 37 53
e 37 55
e 37 57
e 38 42
e 38 44
e 38 52
e 38 59
e 39 44
e 39 48
e 39 50
e 39 52
e 39 53
e 39 56
e 39 59
e 40 51
e 41 51
e 41 59
e 41 60
e 42 46
e 42 48
e 42 49
e 42 52
e 42 56
e 42 60
e 43 53
e 43 54
e 43 56
e 43 60
e 44 45
e 44 53
e 44 59
e 44 60
e 45 54
e 45 55
e 46 50
e 46 52
e 46 59
e 47 55
e 47 57
e 47 58
e 47 59
e 47 60
e 48 52
e 48 53
e 48 56
e 49 52
e 50 51
e 50 52
e 50 55
e 50 56
e 51 52
e 51 57
e 51 58
e 51 60
e 52 54
e 52 56
e 53 55
e 53 58
e 54 57
e 55 57
e 55 59
e 55 60
e 56 59
e 58 59
